p tw 72 81
1 2
2 13
3 4
3 55
4 65
5 6
6 7
7 8
8 9
9 10
10 11
11 12
12 14
13 24
14 15
15 16
16 17
17 18
18 19
18 25
19 20
20 21
21 22
22 23
22 11
23 69
24 35
25 26
26 27
27 28
28 29
29 30
30 31
30 38
31 32
32 33
32 11
33 34
34 36
35 46
36 37
37 11
38 39
39 40
40 41
41 42
42 43
43 44
44 45
45 47
46 57
47 48
48 49
49 50
50 51
51 52
52 53
52 62
53 54
54 55
55 56
56 58
56 60
57 68
57 5
58 59
59 60
59 62
60 61
61 69
62 63
63 64
64 11
65 66
66 67
67 69
68 71
69 70
71 72
71 21
72 3
